(set-info :source |printed by MathSAT|)
(declare-fun |!{$(in_main#0)<$(in_rec_array_insert_sort#4)<array>>}| () Int)
(declare-fun |!{$(in_main#0)<$(in_rec_array_insert_sort#4)<array>>}.next| () Int)
(declare-fun |!{$(in_main#0)<$(in_rec_array_insert_sort#4)<N>>}| () Int)
(declare-fun |!{$(in_main#0)<$(in_rec_array_insert_sort#4)<N>>}.next| () Int)
(declare-fun |!{$(in_main#0)<$(in_rec_array_insert_sort#4)<j>>}| () Int)
(declare-fun |!{$(in_main#0)<$(in_rec_array_insert_sort#4)<j>>}.next| () Int)
(declare-fun |!{$(in_main#0)<$(in_rec_array_insert_sort#4)<x>>}| () Int)
(declare-fun |!{$(in_main#0)<$(in_rec_array_insert_sort#4)<x>>}.next| () Int)
(declare-fun |!{$(in_main#0)<N>}| () Int)
(declare-fun |!{$(in_main#0)<N>}.next| () Int)
(declare-fun |!{$(in_main#0)<&array>}| () Int)
(declare-fun |!{$(in_main#0)<&array>}.next| () Int)
(declare-fun |!{$(in_main#0)<k>}| () Int)
(declare-fun |!{$(in_main#0)<k>}.next| () Int)
(declare-fun |!{$(in_main#0)<$(in_rec_array_insert_sort#4)<$(in_rec_array_insert_sort#0)<array>>>}| () Int)
(declare-fun |!{$(in_main#0)<$(in_rec_array_insert_sort#4)<$(in_rec_array_insert_sort#0)<array>>>}.next| () Int)
(declare-fun |!{$(in_main#0)<k#1>}| () Int)
(declare-fun |!{$(in_main#0)<k#1>}.next| () Int)
(declare-fun |!{$(in_main#0)<l>}| () Int)
(declare-fun |!{$(in_main#0)<l>}.next| () Int)
(declare-fun |!{$(in_main#0)<$(in_rec_array_insert_sort#4)<$(in_rec_array_insert_sort#0)<j>>>}| () Int)
(declare-fun |!{$(in_main#0)<$(in_rec_array_insert_sort#4)<$(in_rec_array_insert_sort#0)<j>>>}.next| () Int)
(declare-fun |!{$(in_main#0)<$(in_rec_array_insert_sort#4)<$(in_rec_array_insert_sort#0)<x>>>}| () Int)
(declare-fun |!{$(in_main#0)<$(in_rec_array_insert_sort#4)<$(in_rec_array_insert_sort#0)<x>>>}.next| () Int)
(declare-fun |!{%memaddr}| () Int)
(declare-fun |!{%memaddr}.next| () Int)
(declare-fun |!{%mem.0}| () (Array Int Int))
(declare-fun |!{%mem.0}.next| () (Array Int Int))
(declare-fun |!{$(in_main#0)<$(in___VERIFIER_nondet_int#1)<h#<__VERIFIER_nondet_int.return>>>}| () Int)
(declare-fun |!{$(in_main#0)<$(in___VERIFIER_nondet_int#3)<h#<__VERIFIER_nondet_int.return>>>}| () Int)
(declare-fun !pc () Int)
(declare-fun !pc.next () Int)
(declare-fun |%{$(in_main#0)<k#1>}#1| () Int)
(declare-fun |%{$(in_main#0)<l>}#1| () Int)
(declare-fun |%{$(in_main#0)<$(in_rec_array_insert_sort#4)<j>>}#1| () Int)
(declare-fun |%{$(in_main#0)<$(in_rec_array_insert_sort#4)<x>>}#1| () Int)
(declare-fun |%{$(in_main#0)<$(in_rec_array_insert_sort#4)<$(in_rec_array_insert_sort#0)<j>>>}#1| () Int)
(declare-fun |%{$(in_main#0)<$(in_rec_array_insert_sort#4)<$(in_rec_array_insert_sort#0)<x>>>}#1| () Int)
(define-fun .def_56 () Int (! !pc :next !pc.next))
(define-fun .def_59 () Bool (! (= .def_56 2) :init true))
(define-fun .def_427 () Bool (= .def_56 48))
(define-fun .def_216 () Bool (= !pc.next 132))
(define-fun .def_436 () Bool (and .def_216 .def_427))
(define-fun .def_378 () Bool (= |!{$(in_main#0)<$(in_rec_array_insert_sort#4)<x>>}.next| |%{$(in_main#0)<$(in_rec_array_insert_sort#4)<x>>}#1|))
(define-fun .def_376 () Bool (= |!{$(in_main#0)<$(in_rec_array_insert_sort#4)<j>>}.next| |%{$(in_main#0)<$(in_rec_array_insert_sort#4)<j>>}#1|))
(define-fun .def_16 () Int (! |!{$(in_main#0)<N>}| :next |!{$(in_main#0)<N>}.next|))
(define-fun .def_372 () Int (* (- 1) .def_16))
(define-fun .def_373 () Int (+ |!{$(in_main#0)<$(in_rec_array_insert_sort#4)<N>>}.next| .def_372))
(define-fun .def_374 () Bool (= .def_373 (- 1)))
(define-fun .def_18 () Int (! |!{$(in_main#0)<&array>}| :next |!{$(in_main#0)<&array>}.next|))
(define-fun .def_371 () Bool (= |!{$(in_main#0)<$(in_rec_array_insert_sort#4)<array>>}.next| .def_18))
(define-fun .def_375 () Bool (and .def_371 .def_374))
(define-fun .def_377 () Bool (and .def_375 .def_376))
(define-fun .def_379 () Bool (and .def_377 .def_378))
(define-fun .def_115 () Bool (= .def_16 |!{$(in_main#0)<N>}.next|))
(define-fun .def_380 () Bool (and .def_115 .def_379))
(define-fun .def_117 () Bool (= .def_18 |!{$(in_main#0)<&array>}.next|))
(define-fun .def_381 () Bool (and .def_117 .def_380))
(define-fun .def_20 () Int (! |!{$(in_main#0)<k>}| :next |!{$(in_main#0)<k>}.next|))
(define-fun .def_119 () Bool (= .def_20 |!{$(in_main#0)<k>}.next|))
(define-fun .def_382 () Bool (and .def_119 .def_381))
(define-fun .def_253 () Bool (= |!{$(in_main#0)<k#1>}.next| 0))
(define-fun .def_418 () Bool (and .def_253 .def_382))
(define-fun .def_22 () Int (! |!{$(in_main#0)<$(in_rec_array_insert_sort#4)<$(in_rec_array_insert_sort#0)<array>>>}| :next |!{$(in_main#0)<$(in_rec_array_insert_sort#4)<$(in_rec_array_insert_sort#0)<array>>>}.next|))
(define-fun .def_91 () Bool (= .def_22 |!{$(in_main#0)<$(in_rec_array_insert_sort#4)<$(in_rec_array_insert_sort#0)<array>>>}.next|))
(define-fun .def_419 () Bool (and .def_91 .def_418))
(define-fun .def_26 () Int (! |!{$(in_main#0)<l>}| :next |!{$(in_main#0)<l>}.next|))
(define-fun .def_143 () Bool (= .def_26 |!{$(in_main#0)<l>}.next|))
(define-fun .def_420 () Bool (and .def_143 .def_419))
(define-fun .def_28 () Int (! |!{$(in_main#0)<$(in_rec_array_insert_sort#4)<$(in_rec_array_insert_sort#0)<j>>>}| :next |!{$(in_main#0)<$(in_rec_array_insert_sort#4)<$(in_rec_array_insert_sort#0)<j>>>}.next|))
(define-fun .def_95 () Bool (= .def_28 |!{$(in_main#0)<$(in_rec_array_insert_sort#4)<$(in_rec_array_insert_sort#0)<j>>>}.next|))
(define-fun .def_421 () Bool (and .def_95 .def_420))
(define-fun .def_30 () Int (! |!{$(in_main#0)<$(in_rec_array_insert_sort#4)<$(in_rec_array_insert_sort#0)<x>>>}| :next |!{$(in_main#0)<$(in_rec_array_insert_sort#4)<$(in_rec_array_insert_sort#0)<x>>>}.next|))
(define-fun .def_97 () Bool (= .def_30 |!{$(in_main#0)<$(in_rec_array_insert_sort#4)<$(in_rec_array_insert_sort#0)<x>>>}.next|))
(define-fun .def_422 () Bool (and .def_97 .def_421))
(define-fun .def_32 () Int (! |!{%memaddr}| :next |!{%memaddr}.next|))
(define-fun .def_130 () Bool (= .def_32 |!{%memaddr}.next|))
(define-fun .def_423 () Bool (and .def_130 .def_422))
(define-fun .def_34 () (Array Int Int) (! |!{%mem.0}| :next |!{%mem.0}.next|))
(define-fun .def_101 () Bool (= .def_34 |!{%mem.0}.next|))
(define-fun .def_424 () Bool (and .def_101 .def_423))
(define-fun .def_337 () Bool (<= .def_16 1))
(define-fun .def_425 () Bool (and .def_337 .def_424))
(define-fun .def_330 () Bool (<= .def_16 .def_20))
(define-fun .def_426 () Bool (and .def_330 .def_425))
(define-fun .def_437 () Bool (and .def_426 .def_436))
(define-fun .def_265 () Bool (= !pc.next 116))
(define-fun .def_433 () Bool (and .def_265 .def_427))
(define-fun .def_411 () Bool (= |!{$(in_main#0)<$(in_rec_array_insert_sort#4)<$(in_rec_array_insert_sort#0)<x>>>}.next| |%{$(in_main#0)<$(in_rec_array_insert_sort#4)<$(in_rec_array_insert_sort#0)<x>>>}#1|))
(define-fun .def_409 () Bool (= |!{$(in_main#0)<$(in_rec_array_insert_sort#4)<$(in_rec_array_insert_sort#0)<j>>>}.next| |%{$(in_main#0)<$(in_rec_array_insert_sort#4)<$(in_rec_array_insert_sort#0)<j>>>}#1|))
(define-fun .def_346 () Int (+ .def_16 .def_18))
(define-fun .def_353 () Int (+ .def_346 (- 1)))
(define-fun .def_354 () Int (select .def_34 .def_353))
(define-fun .def_401 () Bool (= |!{$(in_main#0)<$(in_rec_array_insert_sort#4)<x>>}.next| .def_354))
(define-fun .def_398 () Int (+ |!{$(in_main#0)<$(in_rec_array_insert_sort#4)<j>>}.next| .def_372))
(define-fun .def_399 () Bool (= .def_398 (- 2)))
(define-fun .def_400 () Bool (and .def_375 .def_399))
(define-fun .def_402 () Bool (and .def_400 .def_401))
(define-fun .def_403 () Bool (and .def_115 .def_402))
(define-fun .def_404 () Bool (and .def_117 .def_403))
(define-fun .def_405 () Bool (and .def_119 .def_404))
(define-fun .def_24 () Int (! |!{$(in_main#0)<k#1>}| :next |!{$(in_main#0)<k#1>}.next|))
(define-fun .def_121 () Bool (= .def_24 |!{$(in_main#0)<k#1>}.next|))
(define-fun .def_406 () Bool (and .def_121 .def_405))
(define-fun .def_384 () Bool (= .def_18 |!{$(in_main#0)<$(in_rec_array_insert_sort#4)<$(in_rec_array_insert_sort#0)<array>>>}.next|))
(define-fun .def_407 () Bool (and .def_384 .def_406))
(define-fun .def_408 () Bool (and .def_143 .def_407))
(define-fun .def_410 () Bool (and .def_408 .def_409))
(define-fun .def_412 () Bool (and .def_410 .def_411))
(define-fun .def_413 () Bool (and .def_130 .def_412))
(define-fun .def_414 () Bool (and .def_101 .def_413))
(define-fun .def_342 () Bool (<= .def_16 2))
(define-fun .def_415 () Bool (and .def_342 .def_414))
(define-fun .def_338 () Bool (not .def_337))
(define-fun .def_416 () Bool (and .def_338 .def_415))
(define-fun .def_417 () Bool (and .def_330 .def_416))
(define-fun .def_434 () Bool (and .def_417 .def_433))
(define-fun .def_323 () Bool (= !pc.next 99))
(define-fun .def_430 () Bool (and .def_323 .def_427))
(define-fun .def_348 () Int (+ .def_346 (- 2)))
(define-fun .def_349 () Int (select .def_34 .def_348))
(define-fun .def_391 () Bool (= |!{$(in_main#0)<$(in_rec_array_insert_sort#4)<$(in_rec_array_insert_sort#0)<x>>>}.next| .def_349))
(define-fun .def_289 () Int (* (- 1) |!{$(in_main#0)<$(in_rec_array_insert_sort#4)<$(in_rec_array_insert_sort#0)<j>>>}.next|))
(define-fun .def_388 () Int (+ .def_16 .def_289))
(define-fun .def_389 () Bool (= .def_388 3))
(define-fun .def_383 () Bool (and .def_121 .def_382))
(define-fun .def_385 () Bool (and .def_383 .def_384))
(define-fun .def_386 () Bool (and .def_143 .def_385))
(define-fun .def_390 () Bool (and .def_386 .def_389))
(define-fun .def_392 () Bool (and .def_390 .def_391))
(define-fun .def_393 () Bool (and .def_130 .def_392))
(define-fun .def_394 () Bool (and .def_101 .def_393))
(define-fun .def_343 () Bool (not .def_342))
(define-fun .def_395 () Bool (and .def_343 .def_394))
(define-fun .def_396 () Bool (and .def_338 .def_395))
(define-fun .def_397 () Bool (and .def_330 .def_396))
(define-fun .def_431 () Bool (and .def_397 .def_430))
(define-fun .def_105 () Bool (= !pc.next 48))
(define-fun .def_428 () Bool (and .def_105 .def_427))
(define-fun .def_332 () Int (+ .def_18 .def_20))
(define-fun .def_333 () (Array Int Int) (store .def_34 .def_332 |!{$(in_main#0)<$(in___VERIFIER_nondet_int#3)<h#<__VERIFIER_nondet_int.return>>>}|))
(define-fun .def_368 () Bool (= |!{%mem.0}.next| .def_333))
(define-fun .def_358 () Int (* (- 1) |!{$(in_main#0)<k>}.next|))
(define-fun .def_359 () Int (+ .def_20 .def_358))
(define-fun .def_360 () Bool (= .def_359 (- 1)))
(define-fun .def_14 () Int (! |!{$(in_main#0)<$(in_rec_array_insert_sort#4)<x>>}| :next |!{$(in_main#0)<$(in_rec_array_insert_sort#4)<x>>}.next|))
(define-fun .def_81 () Bool (= .def_14 |!{$(in_main#0)<$(in_rec_array_insert_sort#4)<x>>}.next|))
(define-fun .def_12 () Int (! |!{$(in_main#0)<$(in_rec_array_insert_sort#4)<j>>}| :next |!{$(in_main#0)<$(in_rec_array_insert_sort#4)<j>>}.next|))
(define-fun .def_79 () Bool (= .def_12 |!{$(in_main#0)<$(in_rec_array_insert_sort#4)<j>>}.next|))
(define-fun .def_10 () Int (! |!{$(in_main#0)<$(in_rec_array_insert_sort#4)<N>>}| :next |!{$(in_main#0)<$(in_rec_array_insert_sort#4)<N>>}.next|))
(define-fun .def_77 () Bool (= .def_10 |!{$(in_main#0)<$(in_rec_array_insert_sort#4)<N>>}.next|))
(define-fun .def_8 () Int (! |!{$(in_main#0)<$(in_rec_array_insert_sort#4)<array>>}| :next |!{$(in_main#0)<$(in_rec_array_insert_sort#4)<array>>}.next|))
(define-fun .def_76 () Bool (= .def_8 |!{$(in_main#0)<$(in_rec_array_insert_sort#4)<array>>}.next|))
(define-fun .def_78 () Bool (and .def_76 .def_77))
(define-fun .def_80 () Bool (and .def_78 .def_79))
(define-fun .def_82 () Bool (and .def_80 .def_81))
(define-fun .def_116 () Bool (and .def_82 .def_115))
(define-fun .def_118 () Bool (and .def_116 .def_117))
(define-fun .def_361 () Bool (and .def_118 .def_360))
(define-fun .def_362 () Bool (and .def_121 .def_361))
(define-fun .def_363 () Bool (and .def_91 .def_362))
(define-fun .def_364 () Bool (and .def_143 .def_363))
(define-fun .def_365 () Bool (and .def_95 .def_364))
(define-fun .def_366 () Bool (and .def_97 .def_365))
(define-fun .def_367 () Bool (and .def_130 .def_366))
(define-fun .def_369 () Bool (and .def_367 .def_368))
(define-fun .def_331 () Bool (not .def_330))
(define-fun .def_370 () Bool (and .def_331 .def_369))
(define-fun .def_429 () Bool (and .def_370 .def_428))
(define-fun .def_432 () Bool (or .def_429 .def_431))
(define-fun .def_435 () Bool (or .def_432 .def_434))
(define-fun .def_438 () Bool (or .def_435 .def_437))
(define-fun .def_322 () Bool (= .def_56 99))
(define-fun .def_326 () Bool (and .def_265 .def_322))
(define-fun .def_273 () Int (+ .def_22 .def_28))
(define-fun .def_280 () Int (+ .def_273 1))
(define-fun .def_284 () (Array Int Int) (store .def_34 .def_280 .def_30))
(define-fun .def_312 () Bool (= |!{%mem.0}.next| .def_284))
(define-fun .def_285 () Int (+ .def_8 .def_10))
(define-fun .def_286 () Int (select .def_284 .def_285))
(define-fun .def_301 () Bool (= |!{$(in_main#0)<$(in_rec_array_insert_sort#4)<x>>}.next| .def_286))
(define-fun .def_236 () Int (* (- 1) |!{$(in_main#0)<$(in_rec_array_insert_sort#4)<j>>}.next|))
(define-fun .def_298 () Int (+ .def_10 .def_236))
(define-fun .def_299 () Bool (= .def_298 1))
(define-fun .def_300 () Bool (and .def_78 .def_299))
(define-fun .def_302 () Bool (and .def_300 .def_301))
(define-fun .def_303 () Bool (and .def_115 .def_302))
(define-fun .def_304 () Bool (and .def_117 .def_303))
(define-fun .def_305 () Bool (and .def_119 .def_304))
(define-fun .def_306 () Bool (and .def_121 .def_305))
(define-fun .def_307 () Bool (and .def_91 .def_306))
(define-fun .def_308 () Bool (and .def_143 .def_307))
(define-fun .def_309 () Bool (and .def_95 .def_308))
(define-fun .def_310 () Bool (and .def_97 .def_309))
(define-fun .def_311 () Bool (and .def_130 .def_310))
(define-fun .def_313 () Bool (and .def_311 .def_312))
(define-fun .def_274 () Int (select .def_34 .def_273))
(define-fun .def_275 () Bool (<= .def_274 .def_30))
(define-fun .def_276 () Bool (not .def_275))
(define-fun .def_272 () Bool (<= 0 .def_28))
(define-fun .def_277 () Bool (and .def_272 .def_276))
(define-fun .def_283 () Bool (not .def_277))
(define-fun .def_314 () Bool (and .def_283 .def_313))
(define-fun .def_327 () Bool (and .def_314 .def_326))
(define-fun .def_324 () Bool (and .def_322 .def_323))
(define-fun .def_281 () (Array Int Int) (store .def_34 .def_280 .def_274))
(define-fun .def_295 () Bool (= |!{%mem.0}.next| .def_281))
(define-fun .def_290 () Int (+ .def_28 .def_289))
(define-fun .def_291 () Bool (= .def_290 1))
(define-fun .def_120 () Bool (and .def_118 .def_119))
(define-fun .def_122 () Bool (and .def_120 .def_121))
(define-fun .def_123 () Bool (and .def_91 .def_122))
(define-fun .def_288 () Bool (and .def_123 .def_143))
(define-fun .def_292 () Bool (and .def_288 .def_291))
(define-fun .def_293 () Bool (and .def_97 .def_292))
(define-fun .def_294 () Bool (and .def_130 .def_293))
(define-fun .def_296 () Bool (and .def_294 .def_295))
(define-fun .def_297 () Bool (and .def_277 .def_296))
(define-fun .def_325 () Bool (and .def_297 .def_324))
(define-fun .def_328 () Bool (or .def_325 .def_327))
(define-fun .def_264 () Bool (= .def_56 116))
(define-fun .def_268 () Bool (and .def_216 .def_264))
(define-fun .def_224 () Int (+ .def_8 .def_12))
(define-fun .def_231 () Int (+ .def_224 1))
(define-fun .def_235 () (Array Int Int) (store .def_34 .def_231 .def_14))
(define-fun .def_260 () Bool (= |!{%mem.0}.next| .def_235))
(define-fun .def_254 () Bool (and .def_120 .def_253))
(define-fun .def_255 () Bool (and .def_91 .def_254))
(define-fun .def_256 () Bool (and .def_143 .def_255))
(define-fun .def_257 () Bool (and .def_95 .def_256))
(define-fun .def_258 () Bool (and .def_97 .def_257))
(define-fun .def_259 () Bool (and .def_130 .def_258))
(define-fun .def_261 () Bool (and .def_259 .def_260))
(define-fun .def_225 () Int (select .def_34 .def_224))
(define-fun .def_226 () Bool (<= .def_225 .def_14))
(define-fun .def_227 () Bool (not .def_226))
(define-fun .def_223 () Bool (<= 0 .def_12))
(define-fun .def_228 () Bool (and .def_223 .def_227))
(define-fun .def_234 () Bool (not .def_228))
(define-fun .def_262 () Bool (and .def_234 .def_261))
(define-fun .def_269 () Bool (and .def_262 .def_268))
(define-fun .def_266 () Bool (and .def_264 .def_265))
(define-fun .def_232 () (Array Int Int) (store .def_34 .def_231 .def_225))
(define-fun .def_250 () Bool (= |!{%mem.0}.next| .def_232))
(define-fun .def_237 () Int (+ .def_12 .def_236))
(define-fun .def_238 () Bool (= .def_237 1))
(define-fun .def_239 () Bool (and .def_78 .def_238))
(define-fun .def_240 () Bool (and .def_81 .def_239))
(define-fun .def_241 () Bool (and .def_115 .def_240))
(define-fun .def_242 () Bool (and .def_117 .def_241))
(define-fun .def_243 () Bool (and .def_119 .def_242))
(define-fun .def_244 () Bool (and .def_121 .def_243))
(define-fun .def_245 () Bool (and .def_91 .def_244))
(define-fun .def_246 () Bool (and .def_143 .def_245))
(define-fun .def_247 () Bool (and .def_95 .def_246))
(define-fun .def_248 () Bool (and .def_97 .def_247))
(define-fun .def_249 () Bool (and .def_130 .def_248))
(define-fun .def_251 () Bool (and .def_249 .def_250))
(define-fun .def_252 () Bool (and .def_228 .def_251))
(define-fun .def_267 () Bool (and .def_252 .def_266))
(define-fun .def_270 () Bool (or .def_267 .def_269))
(define-fun .def_208 () Bool (= .def_56 140))
(define-fun .def_217 () Bool (and .def_208 .def_216))
(define-fun .def_197 () Int (* (- 1) |!{$(in_main#0)<k#1>}.next|))
(define-fun .def_198 () Int (+ .def_24 .def_197))
(define-fun .def_199 () Bool (= .def_198 (- 1)))
(define-fun .def_200 () Bool (and .def_120 .def_199))
(define-fun .def_201 () Bool (and .def_91 .def_200))
(define-fun .def_202 () Bool (and .def_143 .def_201))
(define-fun .def_203 () Bool (and .def_95 .def_202))
(define-fun .def_204 () Bool (and .def_97 .def_203))
(define-fun .def_205 () Bool (and .def_130 .def_204))
(define-fun .def_206 () Bool (and .def_101 .def_205))
(define-fun .def_160 () Bool (<= .def_16 .def_26))
(define-fun .def_207 () Bool (and .def_160 .def_206))
(define-fun .def_218 () Bool (and .def_207 .def_217))
(define-fun .def_152 () Bool (= !pc.next 140))
(define-fun .def_213 () Bool (and .def_152 .def_208))
(define-fun .def_124 () Int (* (- 1) |!{$(in_main#0)<l>}.next|))
(define-fun .def_188 () Int (+ .def_26 .def_124))
(define-fun .def_189 () Bool (= .def_188 (- 1)))
(define-fun .def_190 () Bool (and .def_123 .def_189))
(define-fun .def_191 () Bool (and .def_95 .def_190))
(define-fun .def_192 () Bool (and .def_97 .def_191))
(define-fun .def_193 () Bool (and .def_130 .def_192))
(define-fun .def_194 () Bool (and .def_101 .def_193))
(define-fun .def_164 () Int (+ .def_18 .def_26))
(define-fun .def_165 () Int (select .def_34 .def_164))
(define-fun .def_162 () Int (+ .def_18 .def_24))
(define-fun .def_163 () Int (select .def_34 .def_162))
(define-fun .def_166 () Bool (<= .def_163 .def_165))
(define-fun .def_167 () Int (ite .def_166 1 0))
(define-fun .def_168 () Bool (= .def_167 0))
(define-fun .def_169 () Bool (not .def_168))
(define-fun .def_195 () Bool (and .def_169 .def_194))
(define-fun .def_161 () Bool (not .def_160))
(define-fun .def_196 () Bool (and .def_161 .def_195))
(define-fun .def_214 () Bool (and .def_196 .def_213))
(define-fun .def_210 () Bool (= !pc.next 160))
(define-fun .def_211 () Bool (and .def_208 .def_210))
(define-fun .def_173 () Bool (and .def_76 .def_168))
(define-fun .def_174 () Bool (and .def_77 .def_173))
(define-fun .def_175 () Bool (and .def_79 .def_174))
(define-fun .def_176 () Bool (and .def_81 .def_175))
(define-fun .def_177 () Bool (and .def_115 .def_176))
(define-fun .def_178 () Bool (and .def_117 .def_177))
(define-fun .def_179 () Bool (and .def_119 .def_178))
(define-fun .def_180 () Bool (and .def_121 .def_179))
(define-fun .def_181 () Bool (and .def_91 .def_180))
(define-fun .def_182 () Bool (and .def_143 .def_181))
(define-fun .def_183 () Bool (and .def_95 .def_182))
(define-fun .def_184 () Bool (and .def_97 .def_183))
(define-fun .def_185 () Bool (and .def_130 .def_184))
(define-fun .def_186 () Bool (and .def_101 .def_185))
(define-fun .def_187 () Bool (and .def_161 .def_186))
(define-fun .def_212 () Bool (and .def_187 .def_211))
(define-fun .def_215 () Bool (or .def_212 .def_214))
(define-fun .def_219 () Bool (or .def_215 .def_218))
(define-fun .def_155 () Bool (= !pc.next 0))
(define-fun .def_150 () Bool (= .def_56 132))
(define-fun .def_156 () Bool (and .def_150 .def_155))
(define-fun .def_110 () Int (* (- 1) .def_24))
(define-fun .def_111 () Int (+ .def_16 .def_110))
(define-fun .def_112 () Bool (<= .def_111 1))
(define-fun .def_134 () Bool (and .def_76 .def_112))
(define-fun .def_135 () Bool (and .def_77 .def_134))
(define-fun .def_136 () Bool (and .def_79 .def_135))
(define-fun .def_137 () Bool (and .def_81 .def_136))
(define-fun .def_138 () Bool (and .def_115 .def_137))
(define-fun .def_139 () Bool (and .def_117 .def_138))
(define-fun .def_140 () Bool (and .def_119 .def_139))
(define-fun .def_141 () Bool (and .def_121 .def_140))
(define-fun .def_142 () Bool (and .def_91 .def_141))
(define-fun .def_144 () Bool (and .def_142 .def_143))
(define-fun .def_145 () Bool (and .def_95 .def_144))
(define-fun .def_146 () Bool (and .def_97 .def_145))
(define-fun .def_147 () Bool (and .def_130 .def_146))
(define-fun .def_148 () Bool (and .def_101 .def_147))
(define-fun .def_157 () Bool (and .def_148 .def_156))
(define-fun .def_153 () Bool (and .def_150 .def_152))
(define-fun .def_125 () Int (+ .def_24 .def_124))
(define-fun .def_126 () Bool (= .def_125 (- 1)))
(define-fun .def_127 () Bool (and .def_123 .def_126))
(define-fun .def_128 () Bool (and .def_95 .def_127))
(define-fun .def_129 () Bool (and .def_97 .def_128))
(define-fun .def_131 () Bool (and .def_129 .def_130))
(define-fun .def_132 () Bool (and .def_101 .def_131))
(define-fun .def_113 () Bool (not .def_112))
(define-fun .def_133 () Bool (and .def_113 .def_132))
(define-fun .def_154 () Bool (and .def_133 .def_153))
(define-fun .def_158 () Bool (or .def_154 .def_157))
(define-fun .def_106 () Bool (and .def_59 .def_105))
(define-fun .def_99 () Bool (= |!{%memaddr}.next| 2))
(define-fun .def_93 () Bool (= |!{$(in_main#0)<l>}.next| |%{$(in_main#0)<l>}#1|))
(define-fun .def_89 () Bool (= |!{$(in_main#0)<k#1>}.next| |%{$(in_main#0)<k#1>}#1|))
(define-fun .def_87 () Bool (= |!{$(in_main#0)<k>}.next| 0))
(define-fun .def_85 () Bool (= |!{$(in_main#0)<&array>}.next| 1))
(define-fun .def_83 () Bool (= |!{$(in_main#0)<N>}.next| |!{$(in_main#0)<$(in___VERIFIER_nondet_int#1)<h#<__VERIFIER_nondet_int.return>>>}|))
(define-fun .def_84 () Bool (and .def_82 .def_83))
(define-fun .def_86 () Bool (and .def_84 .def_85))
(define-fun .def_88 () Bool (and .def_86 .def_87))
(define-fun .def_90 () Bool (and .def_88 .def_89))
(define-fun .def_92 () Bool (and .def_90 .def_91))
(define-fun .def_94 () Bool (and .def_92 .def_93))
(define-fun .def_96 () Bool (and .def_94 .def_95))
(define-fun .def_98 () Bool (and .def_96 .def_97))
(define-fun .def_100 () Bool (and .def_98 .def_99))
(define-fun .def_102 () Bool (and .def_100 .def_101))
(define-fun .def_71 () Bool (<= |!{$(in_main#0)<$(in___VERIFIER_nondet_int#1)<h#<__VERIFIER_nondet_int.return>>>}| 0))
(define-fun .def_72 () Bool (not .def_71))
(define-fun .def_73 () Int (ite .def_72 1 0))
(define-fun .def_74 () Bool (= .def_73 0))
(define-fun .def_75 () Bool (not .def_74))
(define-fun .def_103 () Bool (and .def_75 .def_102))
(define-fun .def_107 () Bool (and .def_103 .def_106))
(define-fun .def_159 () Bool (or .def_107 .def_158))
(define-fun .def_220 () Bool (or .def_159 .def_219))
(define-fun .def_271 () Bool (or .def_220 .def_270))
(define-fun .def_329 () Bool (or .def_271 .def_328))
(define-fun .def_439 () Bool (! (or .def_329 .def_438) :trans true))
(define-fun .def_221 () Bool (= .def_56 160))
(define-fun .def_440 () Bool (! (not .def_221) :invar-property 0 :invar-property-name ||))
(assert true)
